decision_x1=[0,7];
decision_x2=[0,7];
decision_x3=[0,7];
decision_x4=[0,7];
decision_x5=[0,7];
decision_x6=[0,7];
decision_x7=[0,7];
decision_x8=[0,7];
decision_x9=[0,7];
decision_x10=[0,7];
decision_x11=[0,7];
decision_x12=[0,7];
decision_x13=[0,7];
decision_x14=[0,7];
decision_x15=[0,7];
decision_x16=[0,7];
decision_x17=[0,7];
decision_x18=[0,7];
random_y1=[0,7];
random_y2=[0,7];
random_y3=[0,7];
random_y4=[0,7];
random_y5=[0,7];
random_y6=[0,7];
random_y7=[0,7];
random_y8=[0,7];
constraint_x2_x1=[
0,0,3.3|
0,1,0.42|
0,2,2.8|
0,3,9.4|
0,4,9.1|
0,5,0.48|
0,6,6.4|
0,7,4.7|
1,0,9.4|
1,1,5.7|
1,2,0.22|
1,3,0.66|
1,4,2.4|
1,5,4.5|
1,6,6|
1,7,0.06|
2,0,5.4|
2,1,8.2|
2,2,0.34|
2,3,6.6|
2,4,1.2|
2,5,1.1|
2,6,7.8|
2,7,4|
3,0,8|
3,1,0.22|
3,2,4.7|
3,3,9.9|
3,4,7.4|
3,5,8.8|
3,6,5.4|
3,7,9.4|
4,0,4.7|
4,1,2.2|
4,2,0.66|
4,3,8.1|
4,4,4.2|
4,5,7.5|
4,6,10|
4,7,7.6|
5,0,1.1|
5,1,4.7|
5,2,0.79|
5,3,0.47|
5,4,7.3|
5,5,7.3|
5,6,0.24|
5,7,7|
6,0,1.3|
6,1,9.6|
6,2,7.2|
6,3,6.7|
6,4,5|
6,5,9.8|
6,6,5.7|
6,7,3|
7,0,6.2|
7,1,4.3|
7,2,7|
7,3,9.6|
7,4,5.8|
7,5,9.4|
7,6,0.87|
7,7,9.9|
];
constraint_x3_x2=[
0,0,9.2|
0,1,9.3|
0,2,2.1|
0,3,1.9|
0,4,2.1|
0,5,7.1|
0,6,6.3|
0,7,9.9|
1,0,0.49|
1,1,2.6|
1,2,5.6|
1,3,5.9|
1,4,1.4|
1,5,5.7|
1,6,4.6|
1,7,0.074|
2,0,4.2|
2,1,2.1|
2,2,3.8|
2,3,0.33|
2,4,2|
2,5,3.4|
2,6,0.31|
2,7,0.51|
3,0,2.1|
3,1,0.55|
3,2,3.3|
3,3,7.9|
3,4,0.55|
3,5,1.8|
3,6,5.3|
3,7,7.9|
4,0,1.4|
4,1,1.2|
4,2,6.3|
4,3,8.1|
4,4,0.22|
4,5,1.6|
4,6,6.7|
4,7,9.6|
5,0,6.3|
5,1,5.2|
5,2,3|
5,3,2.7|
5,4,8.4|
5,5,7.7|
5,6,1|
5,7,5.9|
6,0,6.6|
6,1,6.9|
6,2,0.64|
6,3,1.5|
6,4,8.2|
6,5,7.7|
6,6,3.9|
6,7,7.7|
7,0,4.4|
7,1,3.9|
7,2,2.6|
7,3,8.8|
7,4,5.2|
7,5,6.7|
7,6,8.9|
7,7,4.5|
];
constraint_x4_x3=[
0,0,6.1|
0,1,2.7|
0,2,1.7|
0,3,1.4|
0,4,6.4|
0,5,9.4|
0,6,7.7|
0,7,4.5|
1,0,7.5|
1,1,2.1|
1,2,3|
1,3,7.7|
1,4,9.1|
1,5,9.7|
1,6,9.1|
1,7,7|
2,0,2.7|
2,1,3.6|
2,2,6.5|
2,3,7.2|
2,4,5.1|
2,5,9.1|
2,6,6.6|
2,7,9.6|
3,0,6.6|
3,1,9.4|
3,2,4.8|
3,3,9.9|
3,4,8.1|
3,5,6.4|
3,6,8.6|
3,7,6.5|
4,0,1.8|
4,1,7.7|
4,2,0.71|
4,3,3.3|
4,4,1.6|
4,5,1.6|
4,6,4.2|
4,7,5.2|
5,0,5.3|
5,1,9|
5,2,3.7|
5,3,2.4|
5,4,3.5|
5,5,9.4|
5,6,7.3|
5,7,6.8|
6,0,0.74|
6,1,7.5|
6,2,9.6|
6,3,3.1|
6,4,4.9|
6,5,0.47|
6,6,1.4|
6,7,0.9|
7,0,9.3|
7,1,0.54|
7,2,0.96|
7,3,7.2|
7,4,0.39|
7,5,6.2|
7,6,0.66|
7,7,7.8|
];
constraint_x5_x1=[
0,0,4.2|
0,1,2.7|
0,2,8.5|
0,3,9.2|
0,4,0.46|
0,5,8.8|
0,6,1.4|
0,7,5.5|
1,0,7.8|
1,1,7.1|
1,2,4|
1,3,8.4|
1,4,4.8|
1,5,0.22|
1,6,9.1|
1,7,5.4|
2,0,3.2|
2,1,5.6|
2,2,2.6|
2,3,8.6|
2,4,4.9|
2,5,1.3|
2,6,4.3|
2,7,6.5|
3,0,8.2|
3,1,9.8|
3,2,3.5|
3,3,9.3|
3,4,3.7|
3,5,8.2|
3,6,8.8|
3,7,9.9|
4,0,5|
4,1,1.3|
4,2,4.4|
4,3,0.95|
4,4,6.5|
4,5,3.3|
4,6,4.6|
4,7,8.8|
5,0,2.9|
5,1,1.1|
5,2,6.1|
5,3,1.3|
5,4,9.5|
5,5,3.1|
5,6,6.2|
5,7,1.7|
6,0,6.9|
6,1,3.9|
6,2,0.62|
6,3,8.5|
6,4,4.6|
6,5,2.9|
6,6,6.1|
6,7,1.8|
7,0,0.47|
7,1,7.3|
7,2,2|
7,3,1.3|
7,4,0.83|
7,5,2.3|
7,6,8.4|
7,7,0.11|
];
constraint_x6_x2=[
0,0,3.4|
0,1,1.2|
0,2,2.9|
0,3,7.8|
0,4,5.5|
0,5,0.42|
0,6,9.6|
0,7,1.6|
1,0,5.9|
1,1,2.6|
1,2,2.1|
1,3,8.8|
1,4,8.3|
1,5,1.7|
1,6,6.5|
1,7,0.46|
2,0,4.6|
2,1,7.1|
2,2,2.7|
2,3,4.2|
2,4,4.1|
2,5,7.3|
2,6,6.4|
2,7,0.51|
3,0,2.1|
3,1,7.7|
3,2,0.98|
3,3,1.9|
3,4,9|
3,5,8.9|
3,6,1.5|
3,7,3|
4,0,8.3|
4,1,8.7|
4,2,2.3|
4,3,3.5|
4,4,10|
4,5,3.5|
4,6,6.5|
4,7,5.6|
5,0,6.2|
5,1,5.8|
5,2,8.8|
5,3,2.2|
5,4,4.3|
5,5,4.9|
5,6,4.3|
5,7,6.9|
6,0,3.7|
6,1,3.6|
6,2,0.54|
6,3,9.6|
6,4,7.3|
6,5,4.1|
6,6,1.8|
6,7,9.5|
7,0,8.5|
7,1,1.2|
7,2,0.97|
7,3,2.1|
7,4,0.22|
7,5,6.7|
7,6,0.53|
7,7,9.2|
];
constraint_x6_x5=[
0,0,5.9|
0,1,4.4|
0,2,9.1|
0,3,7.5|
0,4,8.6|
0,5,5.6|
0,6,5.5|
0,7,7.8|
1,0,6.5|
1,1,5.1|
1,2,7.3|
1,3,7.7|
1,4,4.2|
1,5,6.8|
1,6,1.8|
1,7,6.5|
2,0,9.6|
2,1,8.4|
2,2,8.7|
2,3,4|
2,4,5.9|
2,5,0.73|
2,6,8|
2,7,8.9|
3,0,9.9|
3,1,0.41|
3,2,6.6|
3,3,9.7|
3,4,5.3|
3,5,5.5|
3,6,3.2|
3,7,2.8|
4,0,0.056|
4,1,7.6|
4,2,7.6|
4,3,4|
4,4,3.1|
4,5,3.1|
4,6,9.4|
4,7,5|
5,0,2.3|
5,1,2.1|
5,2,5.1|
5,3,9.8|
5,4,1.1|
5,5,8.2|
5,6,7|
5,7,6.7|
6,0,5.8|
6,1,2.6|
6,2,9.3|
6,3,6.4|
6,4,7.3|
6,5,4.1|
6,6,1.2|
6,7,10|
7,0,8.6|
7,1,8.5|
7,2,4.3|
7,3,2.6|
7,4,8.5|
7,5,4.7|
7,6,4.9|
7,7,6.1|
];
constraint_x7_x3=[
0,0,3.8|
0,1,0.36|
0,2,1.9|
0,3,3.7|
0,4,3.9|
0,5,2.5|
0,6,1.6|
0,7,0.66|
1,0,2|
1,1,0.31|
1,2,5.5|
1,3,5.8|
1,4,1.8|
1,5,5|
1,6,3.5|
1,7,7.1|
2,0,1|
2,1,4.3|
2,2,5.3|
2,3,8.7|
2,4,5.2|
2,5,8.3|
2,6,5.7|
2,7,3.5|
3,0,8.1|
3,1,1.9|
3,2,5.5|
3,3,9.5|
3,4,9.7|
3,5,7.1|
3,6,7.8|
3,7,3.1|
4,0,9.6|
4,1,5.1|
4,2,9.4|
4,3,4.3|
4,4,7.8|
4,5,6.4|
4,6,8.1|
4,7,8.1|
5,0,0.2|
5,1,2.3|
5,2,7|
5,3,7.1|
5,4,7.4|
5,5,5.7|
5,6,3.9|
5,7,6.6|
6,0,3.8|
6,1,5.5|
6,2,6.8|
6,3,5.2|
6,4,0.52|
6,5,6.1|
6,6,6.7|
6,7,8.2|
7,0,6.6|
7,1,5.9|
7,2,3.8|
7,3,4.5|
7,4,4.4|
7,5,0.15|
7,6,6.9|
7,7,6.5|
];
constraint_x7_x6=[
0,0,1.5|
0,1,8.6|
0,2,9.8|
0,3,5.6|
0,4,6.7|
0,5,9.9|
0,6,9.7|
0,7,2.2|
1,0,5.1|
1,1,2.3|
1,2,1.8|
1,3,3.8|
1,4,6.3|
1,5,1.2|
1,6,7.2|
1,7,8.4|
2,0,6.6|
2,1,5.2|
2,2,4.6|
2,3,6|
2,4,1.9|
2,5,0.34|
2,6,5.5|
2,7,9.9|
3,0,2.8|
3,1,5.6|
3,2,2.3|
3,3,4.4|
3,4,0.71|
3,5,1.3|
3,6,7.6|
3,7,0.23|
4,0,3.9|
4,1,4.5|
4,2,8.5|
4,3,9.4|
4,4,1.9|
4,5,5.5|
4,6,4.1|
4,7,9.6|
5,0,9|
5,1,5.7|
5,2,7|
5,3,6|
5,4,2.6|
5,5,5.9|
5,6,5.3|
5,7,2.4|
6,0,5.5|
6,1,0.34|
6,2,7.5|
6,3,7|
6,4,9.6|
6,5,9.9|
6,6,7.3|
6,7,5.2|
7,0,0.42|
7,1,5.8|
7,2,1.4|
7,3,6.7|
7,4,2|
7,5,5|
7,6,3.4|
7,7,4.9|
];
constraint_x8_x4=[
0,0,1.9|
0,1,1.5|
0,2,8.6|
0,3,9.1|
0,4,7|
0,5,1.1|
0,6,3.8|
0,7,3.8|
1,0,2.6|
1,1,6.5|
1,2,0.63|
1,3,2.1|
1,4,8.5|
1,5,2|
1,6,0.071|
1,7,2.2|
2,0,5.2|
2,1,6.2|
2,2,4.9|
2,3,9.8|
2,4,9.8|
2,5,5.3|
2,6,3.6|
2,7,4.5|
3,0,4.6|
3,1,9.3|
3,2,2|
3,3,2|
3,4,7.8|
3,5,6.2|
3,6,8.8|
3,7,9.6|
4,0,0.16|
4,1,6.8|
4,2,2.8|
4,3,0.13|
4,4,1.8|
4,5,3.7|
4,6,8.1|
4,7,5.5|
5,0,4.2|
5,1,6.7|
5,2,3.8|
5,3,6.6|
5,4,1.3|
5,5,4.7|
5,6,3.8|
5,7,4.2|
6,0,5.6|
6,1,1.5|
6,2,7.7|
6,3,8.3|
6,4,4.6|
6,5,3.7|
6,6,7.2|
6,7,8.4|
7,0,1.3|
7,1,1.5|
7,2,9.8|
7,3,0.031|
7,4,0.92|
7,5,0.83|
7,6,3.6|
7,7,8.8|
];
constraint_x8_x7=[
0,0,2.9|
0,1,2.6|
0,2,8.8|
0,3,1.9|
0,4,9.7|
0,5,5.3|
0,6,0.21|
0,7,2.5|
1,0,7.7|
1,1,1.8|
1,2,5.1|
1,3,6.4|
1,4,7.1|
1,5,4.1|
1,6,6|
1,7,2.7|
2,0,2|
2,1,2.4|
2,2,3.4|
2,3,9.9|
2,4,1.9|
2,5,7.8|
2,6,8.9|
2,7,2.5|
3,0,7.7|
3,1,7.8|
3,2,3|
3,3,5|
3,4,9|
3,5,6|
3,6,8.2|
3,7,6.6|
4,0,9.7|
4,1,9.3|
4,2,0.061|
4,3,9.1|
4,4,4.9|
4,5,9|
4,6,7.6|
4,7,9.1|
5,0,3.1|
5,1,7.2|
5,2,8.6|
5,3,3.1|
5,4,2.8|
5,5,8.9|
5,6,3.9|
5,7,4.1|
6,0,1.3|
6,1,9.6|
6,2,8.4|
6,3,5.1|
6,4,6.8|
6,5,8|
6,6,6.9|
6,7,7.1|
7,0,2|
7,1,2|
7,2,5.5|
7,3,9.6|
7,4,8.3|
7,5,3.2|
7,6,2.1|
7,7,7.7|
];
constraint_x9_x5=[
0,0,2.7|
0,1,9.5|
0,2,2.5|
0,3,5|
0,4,5.8|
0,5,8|
0,6,9.7|
0,7,2.9|
1,0,8.4|
1,1,10|
1,2,9.9|
1,3,6.5|
1,4,2.3|
1,5,5.2|
1,6,8.7|
1,7,4.7|
2,0,9.6|
2,1,5.2|
2,2,0.5|
2,3,4.6|
2,4,7.9|
2,5,7.9|
2,6,6.2|
2,7,8.6|
3,0,5.2|
3,1,5.4|
3,2,4.2|
3,3,7.8|
3,4,5.5|
3,5,6.9|
3,6,1.7|
3,7,0.29|
4,0,7.8|
4,1,8.5|
4,2,1.1|
4,3,2.8|
4,4,1.5|
4,5,3.8|
4,6,9.3|
4,7,1.2|
5,0,5.3|
5,1,4.5|
5,2,5.6|
5,3,8.4|
5,4,2.6|
5,5,3.9|
5,6,5.7|
5,7,8.2|
6,0,3.4|
6,1,7.6|
6,2,8.8|
6,3,0.18|
6,4,9.2|
6,5,2.4|
6,6,7|
6,7,2.7|
7,0,3.8|
7,1,2.6|
7,2,7.6|
7,3,2.7|
7,4,8.1|
7,5,2.9|
7,6,5.8|
7,7,3.6|
];
constraint_x10_x6=[
0,0,0.55|
0,1,2.9|
0,2,3.9|
0,3,7.5|
0,4,9.5|
0,5,10|
0,6,9.4|
0,7,0.61|
1,0,2.8|
1,1,2.6|
1,2,5.5|
1,3,1.7|
1,4,7.6|
1,5,5|
1,6,2.1|
1,7,3.1|
2,0,7.2|
2,1,7.4|
2,2,2.8|
2,3,1.7|
2,4,0.95|
2,5,4.3|
2,6,3.7|
2,7,4.8|
3,0,8.2|
3,1,0.28|
3,2,6.9|
3,3,4.8|
3,4,3.6|
3,5,0.36|
3,6,5.2|
3,7,3.3|
4,0,6.9|
4,1,5.9|
4,2,9.1|
4,3,8.6|
4,4,6.7|
4,5,6.8|
4,6,0.94|
4,7,5.7|
5,0,7.7|
5,1,7.3|
5,2,4.4|
5,3,5.4|
5,4,8.3|
5,5,2.7|
5,6,10|
5,7,8.9|
6,0,8.1|
6,1,9.2|
6,2,5.4|
6,3,0.61|
6,4,7.5|
6,5,1.2|
6,6,4.7|
6,7,5.8|
7,0,4.7|
7,1,9|
7,2,6.5|
7,3,7.1|
7,4,9.4|
7,5,1.1|
7,6,0.15|
7,7,1.8|
];
constraint_x11_x7=[
0,0,1.4|
0,1,7.8|
0,2,7.7|
0,3,9.5|
0,4,0.19|
0,5,4.7|
0,6,9.1|
0,7,8|
1,0,4.9|
1,1,1.9|
1,2,8.5|
1,3,0.41|
1,4,9.3|
1,5,1.9|
1,6,7.7|
1,7,5.8|
2,0,0.42|
2,1,4.5|
2,2,3|
2,3,5.3|
2,4,2.9|
2,5,7.5|
2,6,1.7|
2,7,2.4|
3,0,2.9|
3,1,9.2|
3,2,6.7|
3,3,3.7|
3,4,1.3|
3,5,0.73|
3,6,10|
3,7,9.1|
4,0,8.6|
4,1,8.8|
4,2,0.83|
4,3,4.5|
4,4,3.8|
4,5,1.3|
4,6,8.8|
4,7,3.7|
5,0,9.7|
5,1,8.2|
5,2,8.5|
5,3,3.7|
5,4,7.1|
5,5,3.5|
5,6,2.5|
5,7,9.8|
6,0,5.2|
6,1,8.5|
6,2,3.5|
6,3,3.6|
6,4,5.4|
6,5,8.3|
6,6,9|
6,7,9.4|
7,0,3.4|
7,1,3.2|
7,2,3.4|
7,3,6.1|
7,4,6.6|
7,5,9.2|
7,6,5.5|
7,7,8.4|
];
constraint_x12_x8=[
0,0,8.3|
0,1,6.5|
0,2,6.3|
0,3,0.08|
0,4,4.8|
0,5,8.7|
0,6,9.3|
0,7,6.3|
1,0,0.3|
1,1,7.9|
1,2,0.73|
1,3,4.1|
1,4,5.5|
1,5,8.8|
1,6,7.3|
1,7,9|
2,0,2|
2,1,7.6|
2,2,6.5|
2,3,8.3|
2,4,8.4|
2,5,5.8|
2,6,1.7|
2,7,0.9|
3,0,5.3|
3,1,6.1|
3,2,8.5|
3,3,8.1|
3,4,7|
3,5,8.5|
3,6,3.8|
3,7,9|
4,0,5.2|
4,1,4.3|
4,2,7.8|
4,3,4.1|
4,4,8.6|
4,5,0.29|
4,6,3.5|
4,7,3.4|
5,0,0.063|
5,1,9.5|
5,2,1.6|
5,3,3.5|
5,4,3.2|
5,5,3.3|
5,6,6.5|
5,7,5.2|
6,0,8.8|
6,1,1.3|
6,2,10|
6,3,0.93|
6,4,3.2|
6,5,2.2|
6,6,8.7|
6,7,1.9|
7,0,4|
7,1,4.9|
7,2,2.2|
7,3,0.12|
7,4,6.9|
7,5,6.6|
7,6,2.9|
7,7,5.2|
];
constraint_x13_x9=[
0,0,2.9|
0,1,1.4|
0,2,5.8|
0,3,7.4|
0,4,8.4|
0,5,3.1|
0,6,1.6|
0,7,5.9|
1,0,9.2|
1,1,9.6|
1,2,4.8|
1,3,4.5|
1,4,0.58|
1,5,6.7|
1,6,2.1|
1,7,5.6|
2,0,4.5|
2,1,3.1|
2,2,2.7|
2,3,4.9|
2,4,4.6|
2,5,9.5|
2,6,0.46|
2,7,0.047|
3,0,6.5|
3,1,4.6|
3,2,5|
3,3,8.6|
3,4,7.8|
3,5,5.2|
3,6,7|
3,7,8.7|
4,0,2|
4,1,0.082|
4,2,2.6|
4,3,4.7|
4,4,3.7|
4,5,2.4|
4,6,1.7|
4,7,3.5|
5,0,1.3|
5,1,1.2|
5,2,0.87|
5,3,2.2|
5,4,3.7|
5,5,8.7|
5,6,2.1|
5,7,8.1|
6,0,10|
6,1,7.7|
6,2,8.1|
6,3,7.9|
6,4,4.9|
6,5,4.7|
6,6,3.5|
6,7,7|
7,0,2.2|
7,1,1.4|
7,2,4.7|
7,3,7.9|
7,4,2.1|
7,5,0.23|
7,6,6|
7,7,7.2|
];
constraint_x14_x10=[
0,0,8.3|
0,1,3.5|
0,2,8.6|
0,3,7.9|
0,4,0.25|
0,5,8.6|
0,6,1.7|
0,7,0.62|
1,0,4.2|
1,1,8.7|
1,2,3.9|
1,3,5.7|
1,4,5.6|
1,5,10|
1,6,4.6|
1,7,1.3|
2,0,9.4|
2,1,9.4|
2,2,7.2|
2,3,0.13|
2,4,0.071|
2,5,1.9|
2,6,4.6|
2,7,2.5|
3,0,9.2|
3,1,2.7|
3,2,6.4|
3,3,8.5|
3,4,9.2|
3,5,2.8|
3,6,4.1|
3,7,0.08|
4,0,3.9|
4,1,3.5|
4,2,6.7|
4,3,6.8|
4,4,0.079|
4,5,6.3|
4,6,1.4|
4,7,5.9|
5,0,4.3|
5,1,0.57|
5,2,8.4|
5,3,8.2|
5,4,1.6|
5,5,1.5|
5,6,4.9|
5,7,4.5|
6,0,9.2|
6,1,3.9|
6,2,7.1|
6,3,9.1|
6,4,7.8|
6,5,9.8|
6,6,2.4|
6,7,4.8|
7,0,4.8|
7,1,7.1|
7,2,9|
7,3,0.66|
7,4,6.7|
7,5,7.7|
7,6,3.1|
7,7,5.4|
];
constraint_x15_x11=[
0,0,2.7|
0,1,6.1|
0,2,9.8|
0,3,4.1|
0,4,9.7|
0,5,4.6|
0,6,6.5|
0,7,6.5|
1,0,1.8|
1,1,6.8|
1,2,7.6|
1,3,2.8|
1,4,9.3|
1,5,5.7|
1,6,7|
1,7,2.6|
2,0,8.1|
2,1,8.5|
2,2,0.035|
2,3,4.3|
2,4,9.3|
2,5,5.4|
2,6,5.8|
2,7,9.7|
3,0,0.011|
3,1,1.8|
3,2,3.5|
3,3,8|
3,4,9.3|
3,5,3.2|
3,6,8.1|
3,7,7.9|
4,0,2.9|
4,1,6.1|
4,2,9.7|
4,3,8.9|
4,4,0.56|
4,5,4.8|
4,6,0.64|
4,7,1.3|
5,0,3.8|
5,1,0.41|
5,2,7.5|
5,3,3.3|
5,4,8.4|
5,5,6.3|
5,6,9.2|
5,7,3.3|
6,0,9.1|
6,1,9.2|
6,2,0.079|
6,3,8.3|
6,4,3.7|
6,5,3.3|
6,6,8.9|
6,7,0.014|
7,0,0.4|
7,1,5.1|
7,2,3.2|
7,3,9.2|
7,4,2.8|
7,5,3.7|
7,6,5.8|
7,7,6.4|
];
constraint_x16_x12=[
0,0,2.2|
0,1,0.17|
0,2,7.3|
0,3,6.2|
0,4,3|
0,5,6.7|
0,6,5.7|
0,7,8|
1,0,0.51|
1,1,2.8|
1,2,7.1|
1,3,7.4|
1,4,6.6|
1,5,0.47|
1,6,6.1|
1,7,3.2|
2,0,8.6|
2,1,8.5|
2,2,8.2|
2,3,7.8|
2,4,3.5|
2,5,6.9|
2,6,8.2|
2,7,9.9|
3,0,9.7|
3,1,5.3|
3,2,2|
3,3,6.6|
3,4,2.8|
3,5,4.2|
3,6,7.5|
3,7,3.4|
4,0,5.6|
4,1,6.8|
4,2,2.3|
4,3,0.71|
4,4,3.7|
4,5,9.2|
4,6,0.25|
4,7,6.9|
5,0,1.1|
5,1,8.1|
5,2,6.9|
5,3,9.1|
5,4,8.9|
5,5,4.5|
5,6,8.9|
5,7,6.3|
6,0,3.4|
6,1,5.2|
6,2,7.9|
6,3,8.3|
6,4,2.4|
6,5,4.6|
6,6,5.2|
6,7,5.9|
7,0,7.3|
7,1,3.6|
7,2,1.1|
7,3,8.6|
7,4,9.8|
7,5,4.2|
7,6,5.1|
7,7,3.7|
];
constraint_x17_x13=[
0,0,4|
0,1,3.7|
0,2,6|
0,3,7.9|
0,4,0.78|
0,5,9|
0,6,2.3|
0,7,6.4|
1,0,7.1|
1,1,8.6|
1,2,6.3|
1,3,7.8|
1,4,2.4|
1,5,1.7|
1,6,8.6|
1,7,7.5|
2,0,4.1|
2,1,8.6|
2,2,4|
2,3,7|
2,4,7.2|
2,5,0.76|
2,6,7.3|
2,7,7.3|
3,0,0.0061|
3,1,4.3|
3,2,2.4|
3,3,9.6|
3,4,4.5|
3,5,0.32|
3,6,5.6|
3,7,0.99|
4,0,7.7|
4,1,0.96|
4,2,8.7|
4,3,5.8|
4,4,2.8|
4,5,9.3|
4,6,2|
4,7,0.86|
5,0,4.6|
5,1,7.3|
5,2,5.2|
5,3,1.8|
5,4,1.8|
5,5,5|
5,6,6.5|
5,7,9.7|
6,0,8.2|
6,1,7.9|
6,2,7.4|
6,3,6.2|
6,4,3.4|
6,5,9.3|
6,6,8.5|
6,7,8|
7,0,2|
7,1,0.11|
7,2,3.9|
7,3,5.2|
7,4,3.2|
7,5,2.8|
7,6,7.2|
7,7,5.1|
];
constraint_x18_x14=[
0,0,5.1|
0,1,1.4|
0,2,3.1|
0,3,5.2|
0,4,0.65|
0,5,4.4|
0,6,2|
0,7,5.6|
1,0,8.6|
1,1,2.8|
1,2,8.2|
1,3,6.5|
1,4,6.3|
1,5,6.8|
1,6,3.2|
1,7,0.45|
2,0,0.73|
2,1,7.6|
2,2,7.8|
2,3,6.2|
2,4,3.8|
2,5,6.3|
2,6,9.2|
2,7,8.1|
3,0,5.2|
3,1,3.4|
3,2,3.7|
3,3,2.7|
3,4,8|
3,5,9.5|
3,6,1.5|
3,7,3.4|
4,0,3.5|
4,1,0.029|
4,2,5.7|
4,3,7.2|
4,4,8.7|
4,5,1.9|
4,6,3.6|
4,7,0.6|
5,0,2.1|
5,1,6.2|
5,2,3.6|
5,3,8.5|
5,4,0.87|
5,5,8.9|
5,6,6|
5,7,7.4|
6,0,7.9|
6,1,6.7|
6,2,7.6|
6,3,9.1|
6,4,4.4|
6,5,0.6|
6,6,7.9|
6,7,4.3|
7,0,8.9|
7,1,6.3|
7,2,6|
7,3,9.8|
7,4,4.3|
7,5,7.9|
7,6,6.3|
7,7,4|
];
constraint_x1_y1=[
0,0,2.8|
0,1,0.45|
0,2,0.9|
0,3,7.2|
0,4,2.3|
0,5,8.1|
0,6,0.11|
0,7,2.2|
1,0,8.4|
1,1,8|
1,2,2.4|
1,3,9.2|
1,4,2.5|
1,5,3|
1,6,4|
1,7,3.2|
2,0,4.1|
2,1,1.2|
2,2,2.4|
2,3,7.3|
2,4,0.46|
2,5,6.1|
2,6,0.28|
2,7,1.5|
3,0,2.3|
3,1,0.86|
3,2,4|
3,3,5.5|
3,4,6.6|
3,5,0.97|
3,6,4|
3,7,6.8|
4,0,1.4|
4,1,6.2|
4,2,9.4|
4,3,7.2|
4,4,5.1|
4,5,7.1|
4,6,3.3|
4,7,4.3|
5,0,0.48|
5,1,1.5|
5,2,4.3|
5,3,0.46|
5,4,7|
5,5,0.99|
5,6,1.6|
5,7,8.5|
6,0,3.8|
6,1,5.1|
6,2,2.8|
6,3,8.6|
6,4,8.1|
6,5,9.4|
6,6,1.2|
6,7,4.1|
7,0,3.4|
7,1,1|
7,2,2.8|
7,3,4.2|
7,4,0.51|
7,5,5.3|
7,6,2.1|
7,7,6.1|
];
constraint_x2_y2=[
0,0,8.8|
0,1,5.2|
0,2,0.46|
0,3,8.2|
0,4,9.4|
0,5,8.8|
0,6,0.3|
0,7,6.5|
1,0,1.6|
1,1,5.7|
1,2,9.9|
1,3,1|
1,4,7.2|
1,5,3.1|
1,6,1.6|
1,7,8.7|
2,0,1.1|
2,1,7.6|
2,2,1.6|
2,3,0.8|
2,4,2.4|
2,5,6.4|
2,6,0.69|
2,7,6.1|
3,0,9.1|
3,1,7.1|
3,2,4.3|
3,3,7.9|
3,4,7.8|
3,5,2.4|
3,6,5.2|
3,7,5.2|
4,0,9.1|
4,1,9.2|
4,2,6.7|
4,3,0.3|
4,4,7.2|
4,5,9.3|
4,6,5.1|
4,7,6|
5,0,7.6|
5,1,0.83|
5,2,0.55|
5,3,3.4|
5,4,6.2|
5,5,9.3|
5,6,3.9|
5,7,3.2|
6,0,9.7|
6,1,1.3|
6,2,7.5|
6,3,2.9|
6,4,7.7|
6,5,5.2|
6,6,0.53|
6,7,4.8|
7,0,3.3|
7,1,2.2|
7,2,7.7|
7,3,7.3|
7,4,9.8|
7,5,7.5|
7,6,5.6|
7,7,8.2|
];
constraint_x3_y3=[
0,0,4.2|
0,1,5.6|
0,2,7.1|
0,3,5.8|
0,4,1.3|
0,5,5|
0,6,6.1|
0,7,7.8|
1,0,1.5|
1,1,5.7|
1,2,7.7|
1,3,0.14|
1,4,6.8|
1,5,0.095|
1,6,5.8|
1,7,1.4|
2,0,6.5|
2,1,9.3|
2,2,5.4|
2,3,0.93|
2,4,7|
2,5,4.6|
2,6,7.3|
2,7,5.1|
3,0,1.6|
3,1,1.7|
3,2,7.7|
3,3,1.5|
3,4,6.7|
3,5,5.6|
3,6,8.7|
3,7,2.5|
4,0,1|
4,1,10|
4,2,0.82|
4,3,9.4|
4,4,6.4|
4,5,3.7|
4,6,9.4|
4,7,8.8|
5,0,5.6|
5,1,3.8|
5,2,4.1|
5,3,5.9|
5,4,9.7|
5,5,1.5|
5,6,2.4|
5,7,4.1|
6,0,9.5|
6,1,1.3|
6,2,2.6|
6,3,4.8|
6,4,8.6|
6,5,10|
6,6,4|
6,7,1.2|
7,0,1.5|
7,1,9|
7,2,3.7|
7,3,6|
7,4,9.3|
7,5,8.3|
7,6,7.8|
7,7,1|
];
constraint_x4_y4=[
0,0,3.7|
0,1,9|
0,2,4.6|
0,3,3.7|
0,4,1.9|
0,5,4.1|
0,6,8.1|
0,7,5.1|
1,0,7.8|
1,1,5.7|
1,2,6|
1,3,2.6|
1,4,4.6|
1,5,7.6|
1,6,4|
1,7,3.4|
2,0,8|
2,1,5.7|
2,2,7.5|
2,3,6.5|
2,4,6.2|
2,5,1.2|
2,6,2.8|
2,7,2.1|
3,0,2.6|
3,1,7.6|
3,2,2.5|
3,3,8.7|
3,4,1.9|
3,5,2|
3,6,5.3|
3,7,8.6|
4,0,9.1|
4,1,5|
4,2,8.2|
4,3,5.3|
4,4,0.54|
4,5,1.4|
4,6,6.3|
4,7,0.11|
5,0,4.9|
5,1,0.43|
5,2,2.9|
5,3,8.5|
5,4,4.9|
5,5,3.9|
5,6,0.56|
5,7,6.1|
6,0,1.5|
6,1,3.1|
6,2,6.6|
6,3,8.5|
6,4,5.2|
6,5,8.6|
6,6,8.3|
6,7,7.5|
7,0,0.62|
7,1,9.9|
7,2,5.4|
7,3,1.9|
7,4,1.5|
7,5,1.8|
7,6,5.4|
7,7,3.3|
];
constraint_x5_y5=[
0,0,4.3|
0,1,1.1|
0,2,6.7|
0,3,4.1|
0,4,6.5|
0,5,2.7|
0,6,8.4|
0,7,6.5|
1,0,5.1|
1,1,3.4|
1,2,3.4|
1,3,9.8|
1,4,4.1|
1,5,5.2|
1,6,3.5|
1,7,7|
2,0,4.3|
2,1,5.7|
2,2,8.4|
2,3,2.2|
2,4,8.2|
2,5,9.2|
2,6,4.6|
2,7,1.8|
3,0,4.6|
3,1,9.4|
3,2,2.6|
3,3,7|
3,4,8.9|
3,5,2|
3,6,8.5|
3,7,0.93|
4,0,3.9|
4,1,2.4|
4,2,9.8|
4,3,8.7|
4,4,4.6|
4,5,3.6|
4,6,7.4|
4,7,9.4|
5,0,0.43|
5,1,0.27|
5,2,2.8|
5,3,3.5|
5,4,4.4|
5,5,5.2|
5,6,3.4|
5,7,8.7|
6,0,0.14|
6,1,3.2|
6,2,3.2|
6,3,5.7|
6,4,4.4|
6,5,8.2|
6,6,6.5|
6,7,5.8|
7,0,4|
7,1,0.18|
7,2,4.9|
7,3,7.4|
7,4,2.2|
7,5,5.8|
7,6,2.8|
7,7,6.8|
];
constraint_x6_y6=[
0,0,9.3|
0,1,6.7|
0,2,2.7|
0,3,5.5|
0,4,6.9|
0,5,7.2|
0,6,1.4|
0,7,7.8|
1,0,3.5|
1,1,7.9|
1,2,2.7|
1,3,2.8|
1,4,2.9|
1,5,7.4|
1,6,2.7|
1,7,4.6|
2,0,3.7|
2,1,6.1|
2,2,2.5|
2,3,9|
2,4,5.6|
2,5,7.7|
2,6,6.2|
2,7,8.5|
3,0,6.9|
3,1,3.7|
3,2,4|
3,3,5.6|
3,4,2.5|
3,5,1.9|
3,6,0.11|
3,7,5.8|
4,0,1.6|
4,1,5.2|
4,2,4.1|
4,3,2.4|
4,4,0.45|
4,5,8.6|
4,6,0.54|
4,7,1.8|
5,0,8.7|
5,1,1.9|
5,2,5.5|
5,3,0.022|
5,4,3.2|
5,5,10|
5,6,1.8|
5,7,9.6|
6,0,8.8|
6,1,6.1|
6,2,6.6|
6,3,4.3|
6,4,5.1|
6,5,0.4|
6,6,1|
6,7,7|
7,0,9.4|
7,1,9.5|
7,2,7.5|
7,3,5.4|
7,4,9.4|
7,5,6.7|
7,6,7.3|
7,7,3.4|
];
constraint_x7_y7=[
0,0,6.6|
0,1,6.8|
0,2,0.77|
0,3,1.7|
0,4,5|
0,5,2.2|
0,6,3.7|
0,7,0.74|
1,0,7.7|
1,1,9|
1,2,5.4|
1,3,2.3|
1,4,8.8|
1,5,1.3|
1,6,8.5|
1,7,5.3|
2,0,6.7|
2,1,5.5|
2,2,0.44|
2,3,3.7|
2,4,3.4|
2,5,9|
2,6,2.7|
2,7,7.5|
3,0,2.2|
3,1,3.9|
3,2,3.5|
3,3,9.4|
3,4,8.4|
3,5,6.5|
3,6,9.1|
3,7,7.8|
4,0,8.6|
4,1,1.1|
4,2,2.8|
4,3,9.9|
4,4,9.5|
4,5,8.5|
4,6,6.9|
4,7,5|
5,0,0.2|
5,1,9.1|
5,2,3.4|
5,3,1.1|
5,4,2.1|
5,5,2.5|
5,6,2.1|
5,7,7.9|
6,0,3.3|
6,1,4.7|
6,2,8.6|
6,3,7|
6,4,9.7|
6,5,0.21|
6,6,9.9|
6,7,8.5|
7,0,0.23|
7,1,1.9|
7,2,3.3|
7,3,7|
7,4,5.1|
7,5,9.6|
7,6,8.5|
7,7,4.6|
];
constraint_x8_y8=[
0,0,6.7|
0,1,8.5|
0,2,8.7|
0,3,8|
0,4,5.4|
0,5,9.1|
0,6,6.9|
0,7,9.6|
1,0,6.4|
1,1,2.9|
1,2,8.8|
1,3,0.21|
1,4,2.3|
1,5,7.4|
1,6,8.3|
1,7,7.3|
2,0,0.81|
2,1,1.1|
2,2,9.5|
2,3,8.3|
2,4,0.58|
2,5,0.042|
2,6,3|
2,7,8.1|
3,0,5.4|
3,1,3.7|
3,2,7.7|
3,3,3.1|
3,4,8.3|
3,5,5.9|
3,6,2|
3,7,9|
4,0,0.87|
4,1,7.6|
4,2,7.1|
4,3,0.82|
4,4,0.47|
4,5,2.7|
4,6,9.7|
4,7,5.7|
5,0,7|
5,1,9.3|
5,2,4.5|
5,3,1.7|
5,4,7.4|
5,5,8.3|
5,6,5.2|
5,7,4.8|
6,0,8.3|
6,1,7.5|
6,2,7.9|
6,3,4.9|
6,4,2|
6,5,8|
6,6,4|
6,7,0.68|
7,0,9.8|
7,1,8.8|
7,2,0.83|
7,3,8.7|
7,4,9.2|
7,5,2.9|
7,6,7.7|
7,7,8.8|
];
initial_distribution_y1=[0.19,0.025,0.16,0.047,0.1,0.081,0.29,0.1];
initial_distribution_y2=[0.0029,0.047,0.21,0.21,0.13,0.13,0.17,0.095];
initial_distribution_y3=[0.086,0.16,0.036,0.15,0.1,0.15,0.15,0.16];
initial_distribution_y4=[0.0033,0.063,0.089,0.12,0.3,0.17,0.044,0.21];
initial_distribution_y5=[0.17,0.022,0.15,0.17,0.056,0.053,0.17,0.2];
initial_distribution_y6=[0.098,0.26,0.18,0.038,0.038,0.093,0.069,0.22];
initial_distribution_y7=[0.058,0.17,0.11,0.12,0.12,0.14,0.14,0.14];
initial_distribution_y8=[0.086,0.2,0.18,0.0039,0.15,0.076,0.18,0.13];
transition_y1=[
0.16,0.14,0.15,0.1,0.054,0.15,0.1,0.13|
0.19,0.0058,0.17,0.19,0.2,0.16,0.083,0.0057|
0.16,0.1,0.16,0.036,0.094,0.17,0.11,0.17|
0.044,0.18,0.17,0.16,0.0088,0.11,0.12,0.2|
0.2,0.19,0.15,0.15,0.031,0.025,0.11,0.14|
0.057,0.21,0.024,0.15,0.19,0.13,0.086,0.16|
0.14,0.15,0.13,0.076,0.14,0.08,0.14,0.15|
0.13,0.018,0.2,0.12,0.15,0.16,0.084,0.15|
];
transition_y2=[
0.3,0.13,0.3,0.15,0.042,0.058,0.015,0.018|
0.22,0.11,0.023,0.086,0.042,0.23,0.11,0.17|
0.12,0.16,0.0096,0.1,0.069,0.096,0.15,0.29|
0.076,0.24,0.044,0.045,0.27,0.16,0.06,0.11|
0.2,0.15,0.042,0.17,0.054,0.068,0.15,0.16|
0.12,0.18,0.061,0.24,0.12,0.19,0.06,0.032|
0.076,0.029,0.1,0.22,0.13,0.2,0.22,0.019|
0.058,0.2,0.057,0.0094,0.24,0.074,0.049,0.31|
];
transition_y3=[
0.044,0.2,0.24,0.14,0.006,0.2,0.085,0.077|
0.18,0.19,0.15,0.14,0.047,0.19,0.023,0.093|
0.12,0.2,0.12,0.12,0.034,0.11,0.14,0.16|
0.21,0.015,0.026,0.057,0.14,0.18,0.15,0.23|
0.074,0.024,0.043,0.21,0.042,0.28,0.24,0.082|
0.14,0.036,0.18,0.2,0.15,0.2,0.056,0.046|
0.13,0.18,0.16,0.024,0.095,0.11,0.18,0.13|
0.086,0.14,0.24,0.11,0.11,0.11,0.099,0.11|
];
transition_y4=[
0.16,0.13,0.023,0.23,0.066,0.036,0.24,0.11|
0.14,0.11,0.029,0.024,0.0093,0.23,0.14,0.32|
0.27,0.04,0.038,0.012,0.24,0.26,0.11,0.036|
0.042,0.18,0.22,0.2,0.076,0.059,0.03,0.2|
0.036,0.19,0.032,0.2,0.19,0.054,0.21,0.078|
0.013,0.27,0.23,0.27,0.14,0.035,0.032,0.015|
0.16,0.08,0.19,0.099,0.19,0.15,0.0059,0.13|
0.14,0.19,0.12,0.038,0.14,0.011,0.18,0.19|
];
transition_y5=[
0.23,0.2,0.023,0.065,0.13,0.17,0.017,0.17|
0.18,0.094,0.21,0.14,0.039,0.12,0.21,0.0064|
0.22,0.13,0.13,0.06,0.072,0.17,0.19,0.028|
0.16,0.11,0.091,0.026,0.18,0.18,0.13,0.12|
0.086,0.025,0.23,0.13,0.019,0.16,0.13,0.22|
0.19,0.23,0.017,0.12,0.27,0.093,0.053,0.032|
0.27,0.071,0.14,0.069,0.16,0.17,0.1,0.017|
0.2,0.095,0.09,0.15,0.012,0.26,0.11,0.091|
];
transition_y6=[
0.15,0.2,0.15,0.11,0.1,0.06,0.14,0.083|
0.11,0.14,0.092,0.17,0.17,0.17,0.13,0.026|
0.22,0.043,0.11,0.098,0.21,0.055,0.052,0.21|
0.069,0.16,0.024,0.14,0.18,0.22,0.038,0.16|
0.086,0.065,0.039,0.17,0.13,0.11,0.2,0.2|
0.23,0.25,0.024,0.21,0.11,0.065,0.022,0.078|
0.12,0.032,0.23,0.19,0.095,0.13,0.03,0.18|
0.12,0.095,0.0059,0.17,0.13,0.1,0.24,0.15|
];
transition_y7=[
0.19,0.06,0.067,0.067,0.17,0.14,0.21,0.096|
0.14,0.056,0.015,0.15,0.073,0.14,0.23,0.19|
0.13,0.21,0.087,0.016,0.14,0.13,0.15,0.14|
0.011,0.03,0.032,0.2,0.21,0.25,0.065,0.2|
0.08,0.21,0.074,0.25,0.12,0.012,0.018,0.24|
0.21,0.052,0.1,0.22,0.082,0.025,0.15,0.17|
0.15,0.13,0.18,0.0065,0.062,0.1,0.18,0.19|
0.2,0.2,0.14,0.15,0.052,0.021,0.18,0.052|
];
transition_y8=[
0.04,0.12,0.13,0.17,0.095,0.12,0.18,0.15|
0.13,0.14,0.15,0.069,0.073,0.092,0.19,0.16|
0.012,0.13,0.15,0.18,0.15,0.19,0.14,0.037|
0.13,0.17,0.17,0.06,0.13,0.089,0.082,0.18|
0.21,0.054,0.074,0.15,0.027,0.066,0.2,0.22|
0.13,0.17,0.1,0.21,0.095,0.028,0.16,0.1|
0.06,0.11,0.094,0.16,0.16,0.18,0.17,0.068|
0.098,0.2,0.084,0.23,0.048,0.047,0.15,0.15|
];
